dates = {'2022-03-15','2022-03-16','2022-03-17','2022-03-18','2022-03-19','2022-03-20','2022-03-21'};

daysOfWeek = [Tuesday,Wednesday,Thursday,Friday,Saturday,Sunday,Monday];

% For this week, how many people will be here.
numPeople = [98,98,89,89,89,89,89];

% Physical workers need 50 to 100 % more nutrients per day.
numPhysicalWorkers = [28.0,28.0,28.0,21.0,21.0,21.0,21.0];

% Males need +25% more nutrients per day.
numMen = [80,80,80,75,75,75,75];

% Num people who do not eat categories. contains = {none, meat, milk, gluten, egg, nut, seed, sugars}
numRefusals = [| 0,2,0,0,0,0,0,0 | 0,2,0,0,0,0,0,0 | 0,2,0,0,0,7,0,6 | 0,2,0,0,0,7,0,6 | 0,2,0,0,0,7,0,6 | 0,2,0,0,0,7,0,6 | 0,2,0,0,0,7,0,6 |];

